c Sudoku solution
p cnf 729 0
261 0
296 0
328 0
344 0
356 0
365 0
377 0
467 0
539 0
572 0
633 0
641 0
655 0
669 0
686 0
729 0
737 0
824 0
836 0
847 0
879 0
892 0
922 0
627 0
612 0
931 0
332 0
438 0
954 0
949 0
745 0
564 0
414 0
963 0
868 0
766 0
752 0
851 0
976 0
453 0
442 0
558 0
546 0
426 0
116 0
217 0
319 0
121 0
223 0
157 0
259 0
511 0
525 0
248 0
162 0
143 0
282 0
773 0
885 0
718 0
813 0
915 0
471 0
489 0
495 0
199 0
997 0
988 0
587 0
593 0
383 0
391 0
781 0
794 0
184 0
275 0
178 0
135 0
234 0
674 0
698 0
